sat
(
  (define-fun x0_minus () (_ BitVec 5)
    #b00000)
  (define-fun x2_plus () (_ BitVec 5)
    #b00000)
  (define-fun x7_minus () (_ BitVec 5)
    #b00000)
  (define-fun x4_plus () (_ BitVec 5)
    #b00000)
  (define-fun x3_minus () (_ BitVec 5)
    #b00000)
  (define-fun x0_plus () (_ BitVec 5)
    #b00000)
  (define-fun x7_plus () (_ BitVec 5)
    #b00000)
  (define-fun x5_minus () (_ BitVec 5)
    #b00000)
  (define-fun x1_minus () (_ BitVec 5)
    #b00000)
  (define-fun x3_plus () (_ BitVec 5)
    #b00000)
  (define-fun x5_plus () (_ BitVec 5)
    #b00000)
  (define-fun x2_minus () (_ BitVec 5)
    #b00000)
  (define-fun x1_plus () (_ BitVec 5)
    #b00000)
  (define-fun x4_minus () (_ BitVec 5)
    #b00000)
  (define-fun x9_plus () (_ BitVec 5)
    #b00000)
  (define-fun x9_minus () (_ BitVec 5)
    #b00000)
  (define-fun x8_minus () (_ BitVec 5)
    #b00011)
  (define-fun x6_plus () (_ BitVec 5)
    #b00000)
  (define-fun x6_minus () (_ BitVec 5)
    #b01000)
  (define-fun x8_plus () (_ BitVec 5)
    #b00111)
)
